252611494 -1 0
27476389 1 0
261005902 -2 0
207541621 -1 0
118297798 -1 0
286748538 -1 0
126038478 3 0
269504830 -1 0
231119042 -1 0
50275111 -1 0
81093365 4 0
109910235 -1 0
309319468 -1 0
304051567 -1 0
231511028 -1 0
135779860 3 0
29818371 3 0
117337645 -5 0
197289779 -4 0
244704439 -4 0
205709402 -4 0
135933259 4 0
277656814 -4 0
221369214 -3 0
